(set-info :smt-lib-version 2.6)
(set-logic QF_S)
(set-info :source |
Generated by: Murphy Berzish, Mitja Kulczynski, Federico Mora, Florin Manea, Joel Day, Dirk Nowotka, Vijay Ganesh, Zhengyang Lu
Generated on: 2020-10-01
Description: Translated from a collection of real-world regex queries, AutomataArk, collected by Loris D’Antoni and Fang Wang: https://github.com/lorisdanto/automatark
Application: Evaluate solvers on real-world regex queries
Target solver: Z3str3RE, CVC4, OSTRICH, Z3seq, Z3str3, Z3-Trau
Publications: Berzish, M., Kulczynski, M., Mora, F., Manea, F., Day, J. D., Nowotka, D., & Ganesh, V. (2021, July). An SMT solver for regular expressions and linear arithmetic over string length. In CAV 2021.
|)
(set-info :license "https://creativecommons.org/licenses/by/4.0/")
(set-info :category "industrial")
(set-info :status sat)

(declare-const X String)
(assert (str.in_re X (re.++ (str.to_re "/filename=") (re.* (re.comp (str.to_re "\u{a}"))) (str.to_re ".pjpeg/i\u{a}"))))
(assert (not (str.in_re X (re.++ (str.to_re "/.pcx") (re.union (str.to_re "?") (str.to_re "/")) (str.to_re "/Uim\u{a}")))))
(assert (not (str.in_re X (re.++ (str.to_re "/") (re.opt (re.union (str.to_re " ") (str.to_re "\u{9}") (str.to_re "\u{a}") (str.to_re "\u{c}") (str.to_re "\u{d}"))) (re.union (str.to_re "px") (str.to_re "em") (str.to_re "ex") (str.to_re "%") (str.to_re "in") (str.to_re "cn") (str.to_re "mm") (str.to_re "pt") (re.++ (str.to_re "p") (re.+ (str.to_re "c")))) (str.to_re "/igm\u{a}") (re.* (re.range "0" "9")) (re.opt (str.to_re ".")) (re.+ (re.range "0" "9"))))))
(check-sat)

(exit)
